96
0 14 32 39 68 59 35 95 81 64 
13 75 94 10 62 9 1 47 27 51 
25 77 84 79 17 22 80 85 11 91 
41 86 48 15 74 56 60 45 5 73 
28 42 58 21 29 52 6 31 63 82 
24 67 23 83 90 37 18 88 71 54 
43 50 12 93 2 57 4 78 19 53 
61 33 7 92 44 38 69 8 87 16 
72 70 30 55 89 3 66 20 49 40 
36 65 76 26 34 46 
